50
21162

280 930
743 474
444 975
611 759
669 628
588 458
572 330
205 615
172 552
904 349
441 190
809 591
522 726
691 621
606 37
624 38
159 393
466 414
31 667
248 973
454 591
452 834
668 74
74 22
754 580
969 663
287 495
5 793
981 712
604 286
161 949
180 271
599 551
738 291
83 291
795 774
325 683
415 336
744 990
936 585
610 233
419 200
336 937
791 226
788 966
747 625
166 457
597 899
576 545
826 839
